(set-logic HORN)
(declare-datatypes ((Nat_0 0)) (((Z_10 ) (Z_11 (unS_0 Nat_0)))))
(declare-fun diseqNat_0 (Nat_0 Nat_0) Bool)
(declare-datatypes ((Bool_0 0)) (((false_0 ) (true_0 ))))
(declare-fun diseqBool_0 (Bool_0 Bool_0) Bool)
(declare-fun and_0 (Bool_0 Bool_0 Bool_0) Bool)
(declare-fun or_1 (Bool_0 Bool_0 Bool_0) Bool)
(declare-fun not_1 (Bool_0 Bool_0) Bool)
(declare-datatypes ((pair_0 0)) (((pair_1 (projpair_0 Nat_0) (projpair_1 Bool_0)))))
(declare-datatypes ((list_0 0)) (((nil_0 ) (cons_0 (head_0 Bool_0) (tail_0 list_0)))))
(declare-datatypes ((list_1 0)) (((nil_1 ) (cons_1 (head_1 Nat_0) (tail_1 list_1)))))
(declare-datatypes ((list_2 0)) (((nil_2 ) (cons_2 (head_2 pair_0) (tail_2 list_2)))))
(declare-datatypes ((list_3 0)) (((nil_3 ) (cons_3 (head_3 list_2) (tail_3 list_3)))))
(declare-datatypes ((Form_0 0)) (((x_0 (proj_0 Form_0) (proj_1 Form_0)) (Not_0 (projNot_0 Form_0)) (Var_0 (projVar_0 Nat_0)))))
(declare-fun or_0 (Bool_0 list_0) Bool)
(declare-fun okay_0 (list_1 list_2) Bool)
(declare-fun models_0 (list_2 Nat_0 list_2) Bool)
(declare-fun models_1 (list_0 Nat_0 list_2) Bool)
(declare-fun models_2 (list_0 Nat_0 list_2) Bool)
(declare-fun elem_0 (Bool_0 Nat_0 list_1) Bool)
(declare-fun okay_1 (Bool_0 list_2) Bool)
(declare-fun formula_0 (Bool_0 list_3) Bool)
(declare-fun x_14 (list_3 list_3 list_3) Bool)
(declare-fun models_3 (list_3 Form_0 list_2) Bool)
(declare-fun models_4 (list_3 Form_0 list_3) Bool)
(declare-fun models_5 (list_3 list_3 Form_0 list_3) Bool)
(assert (forall ((x_108 Nat_0))
	(diseqNat_0 Z_10 (Z_11 x_108))))
(assert (forall ((x_109 Nat_0))
	(diseqNat_0 (Z_11 x_109) Z_10)))
(assert (forall ((x_110 Nat_0) (x_111 Nat_0))
	(=> (diseqNat_0 x_110 x_111) (diseqNat_0 (Z_11 x_110) (Z_11 x_111)))))
(assert (diseqBool_0 false_0 true_0))
(assert (diseqBool_0 true_0 false_0))
(assert (and_0 false_0 false_0 false_0))
(assert (and_0 false_0 true_0 false_0))
(assert (and_0 false_0 false_0 true_0))
(assert (and_0 true_0 true_0 true_0))
(assert (or_1 false_0 false_0 false_0))
(assert (or_1 true_0 true_0 false_0))
(assert (or_1 true_0 false_0 true_0))
(assert (or_1 true_0 true_0 true_0))
(assert (not_1 true_0 false_0))
(assert (not_1 false_0 true_0))
(assert (forall ((x_25 Bool_0) (x_26 Bool_0) (y_0 Bool_0) (xs_0 list_0))
	(=> (and (or_0 x_26 xs_0) (or_1 x_25 y_0 x_26)) (or_0 x_25 (cons_0 y_0 xs_0)))))
(assert (or_0 false_0 nil_0))
(assert (forall ((x_29 list_1) (z_0 Nat_0) (y_2 Bool_0) (xs_1 list_2))
	(=> (okay_0 x_29 xs_1) (okay_0 (cons_1 z_0 x_29) (cons_2 (pair_1 z_0 y_2) xs_1)))))
(assert (okay_0 nil_1 nil_2))
(assert (forall ((x_32 list_2) (x_4 Nat_0) (y_4 Bool_0) (xs_2 list_2) (x_3 Nat_0))
	(=> (and (diseqNat_0 x_3 x_4) (models_0 x_32 x_3 xs_2)) (models_0 (cons_2 (pair_1 x_4 y_4) x_32) x_3 (cons_2 (pair_1 x_4 y_4) xs_2)))))
(assert (forall ((x_33 list_2) (y_4 Bool_0) (xs_2 list_2) (x_3 Nat_0))
	(=> (models_0 x_33 x_3 xs_2) (models_0 x_33 x_3 (cons_2 (pair_1 x_3 y_4) xs_2)))))
(assert (forall ((x_3 Nat_0))
	(models_0 nil_2 x_3 nil_2)))
(assert (forall ((x_36 list_0) (y_6 Nat_0) (x_6 list_2) (x_5 Nat_0))
	(=> (models_1 x_36 x_5 x_6) (models_1 x_36 x_5 (cons_2 (pair_1 y_6 true_0) x_6)))))
(assert (forall ((x_39 list_0) (x_7 Bool_0) (x_6 list_2) (x_5 Nat_0))
	(=> (and (diseqBool_0 x_7 true_0) (models_1 x_39 x_5 x_6)) (models_1 (cons_0 true_0 x_39) x_5 (cons_2 (pair_1 x_5 x_7) x_6)))))
(assert (forall ((x_41 list_0) (y_6 Nat_0) (x_7 Bool_0) (x_6 list_2) (x_5 Nat_0))
	(=> (and (diseqNat_0 x_5 y_6) (diseqBool_0 x_7 true_0) (models_1 x_41 x_5 x_6)) (models_1 (cons_0 false_0 x_41) x_5 (cons_2 (pair_1 y_6 x_7) x_6)))))
(assert (forall ((x_5 Nat_0))
	(models_1 nil_0 x_5 nil_2)))
(assert (forall ((x_44 list_0) (x_9 list_2) (x_8 Nat_0))
	(=> (models_2 x_44 x_8 x_9) (models_2 (cons_0 true_0 x_44) x_8 (cons_2 (pair_1 x_8 true_0) x_9)))))
(assert (forall ((x_46 list_0) (y_8 Nat_0) (x_9 list_2) (x_8 Nat_0))
	(=> (and (diseqNat_0 x_8 y_8) (models_2 x_46 x_8 x_9)) (models_2 (cons_0 false_0 x_46) x_8 (cons_2 (pair_1 y_8 true_0) x_9)))))
(assert (forall ((x_47 list_0) (y_8 Nat_0) (x_10 Bool_0) (x_9 list_2) (x_8 Nat_0))
	(=> (and (diseqBool_0 x_10 true_0) (models_2 x_47 x_8 x_9)) (models_2 x_47 x_8 (cons_2 (pair_1 y_8 x_10) x_9)))))
(assert (forall ((x_8 Nat_0))
	(models_2 nil_0 x_8 nil_2)))
(assert (forall ((xs_3 list_1) (x_11 Nat_0))
	(elem_0 true_0 x_11 (cons_1 x_11 xs_3))))
(assert (forall ((x_51 Bool_0) (z_4 Nat_0) (xs_3 list_1) (x_11 Nat_0))
	(=> (and (diseqNat_0 z_4 x_11) (elem_0 x_51 x_11 xs_3)) (elem_0 x_51 x_11 (cons_1 z_4 xs_3)))))
(assert (forall ((x_11 Nat_0))
	(elem_0 false_0 x_11 nil_1)))
(assert (forall ((x_100 Bool_0) (x_101 Bool_0) (x_55 list_1) (x_56 Bool_0) (x_57 Bool_0) (z_5 Nat_0) (c_0 Bool_0) (m_0 list_2))
	(=> (and (okay_0 x_55 m_0) (elem_0 x_56 z_5 x_55) (okay_1 x_57 m_0) (not_1 x_100 x_56) (and_0 x_101 x_100 x_57)) (okay_1 x_101 (cons_2 (pair_1 z_5 c_0) m_0)))))
(assert (okay_1 true_0 nil_2))
(assert (forall ((x_102 Bool_0) (x_60 Bool_0) (x_61 Bool_0) (y_11 list_2) (xs_4 list_3))
	(=> (and (okay_1 x_60 y_11) (formula_0 x_61 xs_4) (and_0 x_102 x_60 x_61)) (formula_0 x_102 (cons_3 y_11 xs_4)))))
(assert (formula_0 true_0 nil_3))
(assert (forall ((x_64 list_3) (z_6 list_2) (xs_5 list_3) (y_12 list_3))
	(=> (x_14 x_64 xs_5 y_12) (x_14 (cons_3 z_6 x_64) (cons_3 z_6 xs_5) y_12))))
(assert (forall ((x_65 list_3))
	(x_14 x_65 nil_3 x_65)))
(assert (forall ((x_69 list_2) (x_66 list_0) (x_67 Bool_0) (x_21 Nat_0) (y_15 list_2))
	(=> (and (diseqBool_0 x_67 true_0) (models_0 x_69 x_21 y_15) (models_1 x_66 x_21 y_15) (or_0 x_67 x_66)) (models_3 (cons_3 (cons_2 (pair_1 x_21 true_0) x_69) nil_3) (Var_0 x_21) y_15))))
(assert (forall ((x_70 list_0) (x_21 Nat_0) (y_15 list_2))
	(=> (and (models_1 x_70 x_21 y_15) (or_0 true_0 x_70)) (models_3 nil_3 (Var_0 x_21) y_15))))
(assert (forall ((x_76 list_2) (x_73 list_0) (x_74 Bool_0) (x_20 Nat_0) (y_15 list_2))
	(=> (and (diseqBool_0 x_74 true_0) (models_0 x_76 x_20 y_15) (models_2 x_73 x_20 y_15) (or_0 x_74 x_73)) (models_3 (cons_3 (cons_2 (pair_1 x_20 false_0) x_76) nil_3) (Not_0 (Var_0 x_20)) y_15))))
(assert (forall ((x_77 list_0) (x_20 Nat_0) (y_15 list_2))
	(=> (and (models_2 x_77 x_20 y_15) (or_0 true_0 x_77)) (models_3 nil_3 (Not_0 (Var_0 x_20)) y_15))))
(assert (forall ((x_80 list_3) (p_1 Form_0) (y_15 list_2))
	(=> (models_3 x_80 p_1 y_15) (models_3 x_80 (Not_0 (Not_0 p_1)) y_15))))
(assert (forall ((x_82 list_3) (x_83 list_3) (x_84 list_3) (r_0 Form_0) (q_3 Form_0) (y_15 list_2))
	(=> (and (models_3 x_83 (Not_0 r_0) y_15) (models_3 x_84 (x_0 r_0 (Not_0 q_3)) y_15) (x_14 x_82 x_83 x_84)) (models_3 x_82 (Not_0 (x_0 r_0 q_3)) y_15))))
(assert (forall ((x_86 list_3) (x_87 list_3) (p_0 Form_0) (q_2 Form_0) (y_15 list_2))
	(=> (and (models_3 x_87 p_0 y_15) (models_4 x_86 q_2 x_87)) (models_3 x_86 (x_0 p_0 q_2) y_15))))
(assert (forall ((x_89 list_3) (x_90 list_3) (y_16 list_2) (z_8 list_3) (q_4 Form_0))
	(=> (and (models_3 x_90 q_4 y_16) (models_5 x_89 z_8 q_4 x_90)) (models_4 x_89 q_4 (cons_3 y_16 z_8)))))
(assert (forall ((q_4 Form_0))
	(models_4 nil_3 q_4 nil_3)))
(assert (forall ((x_94 list_3) (z_9 list_2) (x_24 list_3) (x_23 list_3) (q_5 Form_0))
	(=> (models_5 x_94 x_23 q_5 x_24) (models_5 (cons_3 z_9 x_94) x_23 q_5 (cons_3 z_9 x_24)))))
(assert (forall ((x_95 list_3) (x_23 list_3) (q_5 Form_0))
	(=> (models_4 x_95 q_5 x_23) (models_5 x_95 x_23 q_5 nil_3))))
(assert (forall ((x_97 list_3) (x_98 Bool_0) (p_2 Form_0))
	(=> (and (diseqBool_0 x_98 true_0) (models_3 x_97 p_2 nil_2) (formula_0 x_98 x_97)) false)))
(check-sat)
(get-model)
